db/inputs/150152226130984220546032745103708515.smt2
(set-logic QF_FP)
(declare-const x0 (_ FloatingPoint 11 53))
(declare-const x1 (_ FloatingPoint 11 53))
(declare-const x2 (_ FloatingPoint 11 53))
(declare-const x3 (_ FloatingPoint 11 53))
(declare-const x4 (_ FloatingPoint 11 53))
(declare-const x5 (_ FloatingPoint 11 53))
(declare-const x6 (_ FloatingPoint 11 53))
(declare-const x7 (_ FloatingPoint 11 53))
(declare-const x8 (_ FloatingPoint 11 53))
(declare-const x9 (_ FloatingPoint 11 53))
(declare-const x10 (_ FloatingPoint 11 53))
(assert (fp.eq (fp.sub RNE x5 x0) (fp.div RNE x0 x6)))
(assert (fp.lt (fp.sub RNE x1 x1) (fp.add RNE x1 x9)))
(assert (fp.leq (fp.sub RNE x4 x2) (fp.add RNE x3 x2)))
(assert (fp.lt (fp.mul RNE x2 x8) (fp.neg x2)))
(assert (fp.gt (fp.div RNE x3 x0) (fp.neg x4)))
(assert (fp.gt (fp.add RNE x7 x5) (fp.sub RNE x8 x4)))
(assert (fp.lt (fp.mul RNE x10 x1) (fp.sub RNE x2 x3)))
(assert (fp.lt (fp.mul RNE x6 x4) (fp.mul RNE x4 x10)))
(assert (fp.eq (fp.sub RNE x1 x0) (fp.mul RNE x6 x7)))
(assert (fp.gt (fp.mul RNE x8 x8) (fp.add RNE x3 x4)))
(check-sat)
