db/data/150152226130984220546032745103708515.z3.out
-------------------
2500.078013989
